32      1       
15      
0       0       3       2       3       4       
1       9       1       6       
8       0       1       8       
6       0       3       5       7       9       
6       3       1       13      
1       8       1       15      
2       0       1       19      
3       3       3       12      22      23      
5       5       2       10      11      
4       0       2       14      16      
8       0       3       13      18      29      
8       0       1       16      
5       9       2       17      19      
7       1       3       15      24      27      
8       0       2       20      25      
8       3       1       21      
3       5       1       31      
9       7       2       19      20      
7       0       1       27      
7       4       1       30      
5       0       1       30      
7       0       1       28      
1       2       2       27      28      
10      0       1       26      
5       10      2       26      30      
7       0       1       28      
8       6       1       31      
3       0       1       29      
1       6       1       32      
2       0       1       32      
5       0       1       32      
0       0       0       